% File represents an instance of a Composite Structure problem to be solved by a CP framework
% Created on 2025-03-26 10:42:20.130
T = 56;
n = 36;
m = 60;
edges = [(2, 1),
(8, 7),
(14, 13),
(20, 19),
(26, 25),
(32, 31),
(3, 2),
(9, 8),
(15, 14),
(21, 20),
(27, 26),
(33, 32),
(3, 4),
(9, 10),
(16, 15),
(22, 21),
(28, 27),
(34, 33),
(5, 4),
(11, 10),
(17, 16),
(23, 22),
(28, 29),
(34, 35),
(5, 6),
(12, 11),
(17, 18),
(23, 24),
(29, 30),
(36, 35),
(1, 7),
(7, 13),
(13, 19),
(19, 25),
(25, 31),
(2, 8),
(8, 14),
(14, 20),
(20, 26),
(26, 32),
(3, 9),
(9, 15),
(15, 21),
(27, 21),
(27, 33),
(4, 10),
(16, 10),
(16, 22),
(28, 22),
(28, 34),
(5, 11),
(17, 11),
(17, 23),
(23, 29),
(29, 35),
(12, 6),
(12, 18),
(18, 24),
(24, 30),
(36, 30)];
counts = [|12, 14, 12, 10,
|12, 18, 12, 10,
|12, 22, 12, 10,
|12, 16, 12, 10,
|12, 18, 12, 12,
|12, 18, 12, 8,
|12, 14, 12, 8,
|12, 16, 12, 8,
|12, 20, 12, 10,
|12, 16, 12, 8,
|12, 16, 12, 12,
|12, 18, 12, 14,
|12, 8, 12, 8,
|12, 12, 12, 8,
|12, 14, 12, 10,
|12, 16, 12, 12,
|12, 16, 12, 14,
|12, 16, 12, 12,
|12, 6, 12, 8,
|12, 8, 12, 8,
|12, 8, 12, 10,
|12, 12, 12, 10,
|12, 14, 12, 14,
|12, 12, 12, 12,
|12, 6, 12, 6,
|12, 8, 12, 6,
|12, 10, 12, 10,
|12, 12, 12, 12,
|12, 10, 12, 12,
|12, 10, 12, 8,
|12, 2, 12, 4,
|12, 8, 12, 4,
|12, 10, 12, 6,
|12, 12, 12, 10,
|12, 8, 12, 8,
|14, 10, 14, 8|];
